# Generated by ConicBenchmarkUtilities.jl
VER
2

OBJSENSE
MIN

VAR
221 1
F 221

INT
40
24
25
26
27
28
29
30
31
32
33
34
35
36
37
38
39
40
41
42
43
82
86
90
94
106
110
114
118
145
146
147
148
150
154
158
162
197
198
199
200

CON
647 623
L= 1
L= 1
L= 1
L= 1
L= 1
L= 1
L= 1
L= 1
L= 1
L= 1
L= 1
L= 1
L= 1
L= 1
L= 1
L= 1
L= 1
EXP 3
L+ 1
L+ 1
EXP 3
L+ 1
L+ 1
EXP 3
L+ 1
L+ 1
EXP 3
L+ 1
L+ 1
L= 1
L= 1
L= 1
L= 1
L= 1
L= 1
L= 1
L= 1
L= 1
L= 1
L= 1
L= 1
L= 1
L= 1
L= 1
L= 1
L+ 1
L+ 1
L+ 1
L+ 1
L+ 1
L+ 1
L+ 1
L+ 1
L+ 1
L+ 1
L+ 1
L+ 1
L+ 1
L+ 1
L+ 1
L+ 1
EXP 3
L+ 1
L+ 1
EXP 3
L+ 1
L+ 1
EXP 3
L+ 1
L+ 1
EXP 3
L+ 1
L+ 1
L= 1
L= 1
L= 1
L= 1
L= 1
L= 1
L= 1
L= 1
L= 1
L= 1
L= 1
L= 1
L= 1
L= 1
L= 1
L= 1
L+ 1
L+ 1
L+ 1
L+ 1
L+ 1
L+ 1
L+ 1
L+ 1
L+ 1
L+ 1
L+ 1
L+ 1
L+ 1
L+ 1
L+ 1
L+ 1
L= 1
L= 1
L= 1
L= 1
L= 1
L= 1
L= 1
L= 1
L= 1
L= 1
L= 1
L= 1
L= 1
L= 1
L= 1
L= 1
L= 1
L= 1
L= 1
L= 1
L+ 1
L+ 1
L+ 1
L+ 1
L+ 1
L+ 1
L+ 1
L+ 1
L+ 1
L+ 1
L+ 1
L+ 1
L+ 1
L+ 1
L+ 1
L+ 1
EXP 3
L+ 1
L+ 1
EXP 3
L+ 1
L+ 1
EXP 3
L+ 1
L+ 1
EXP 3
L+ 1
L+ 1
L= 1
L= 1
L= 1
L= 1
L= 1
L= 1
L= 1
L= 1
L= 1
L= 1
L= 1
L= 1
L= 1
L= 1
L= 1
L= 1
L+ 1
L+ 1
L+ 1
L+ 1
L+ 1
L+ 1
L+ 1
L+ 1
L+ 1
L+ 1
L+ 1
L+ 1
L+ 1
L+ 1
L+ 1
L+ 1
L= 1
L= 1
L= 1
L= 1
L= 1
L= 1
L= 1
L= 1
L= 1
L= 1
L= 1
L= 1
L= 1
L= 1
L= 1
L= 1
L= 1
L= 1
L= 1
L= 1
L= 1
L= 1
L= 1
L= 1
L= 1
L= 1
L= 1
L= 1
L= 1
L= 1
L= 1
L= 1
L+ 1
L+ 1
L+ 1
L+ 1
L+ 1
L+ 1
L+ 1
L+ 1
L+ 1
L+ 1
L+ 1
L+ 1
L+ 1
L+ 1
L+ 1
L+ 1
L+ 1
L+ 1
L+ 1
L+ 1
L+ 1
L+ 1
L+ 1
L+ 1
L= 1
L= 1
L= 1
L= 1
L= 1
L= 1
L= 1
L= 1
L= 1
L= 1
L= 1
L= 1
L= 1
L= 1
L= 1
L= 1
L= 1
L= 1
L= 1
L= 1
L+ 1
L+ 1
L+ 1
L+ 1
L+ 1
L+ 1
L+ 1
L+ 1
L+ 1
L+ 1
L+ 1
L+ 1
L+ 1
L+ 1
L+ 1
L+ 1
L+ 1
L+ 1
L+ 1
L+ 1
L+ 1
L+ 1
L+ 1
L+ 1
L+ 1
L+ 1
L+ 1
L+ 1
L+ 1
L+ 1
L+ 1
L+ 1
L+ 1
L+ 1
L+ 1
L+ 1
L+ 1
L+ 1
L+ 1
L+ 1
L+ 1
L+ 1
L+ 1
L+ 1
L+ 1
L+ 1
L+ 1
L+ 1
L+ 1
L+ 1
L+ 1
L+ 1
L+ 1
L+ 1
L+ 1
L+ 1
L+ 1
L+ 1
L+ 1
L+ 1
L+ 1
L+ 1
L+ 1
L+ 1
L+ 1
L+ 1
L+ 1
L+ 1
L+ 1
L+ 1
L+ 1
L+ 1
L+ 1
L+ 1
L+ 1
L+ 1
L+ 1
L+ 1
L+ 1
L+ 1
L+ 1
L+ 1
L+ 1
L+ 1
L+ 1
L+ 1
L+ 1
L+ 1
L+ 1
L+ 1
L+ 1
L+ 1
L+ 1
L+ 1
L+ 1
L+ 1
L+ 1
L+ 1
L+ 1
L+ 1
L+ 1
L+ 1
L+ 1
L+ 1
L+ 1
L+ 1
L+ 1
L+ 1
L+ 1
L+ 1
L= 1
L= 1
L= 1
L= 1
L+ 1
L+ 1
L+ 1
L+ 1
L+ 1
L+ 1
L+ 1
L+ 1
L+ 1
L+ 1
L+ 1
L+ 1
L+ 1
L+ 1
L+ 1
L+ 1
L+ 1
L+ 1
L+ 1
L+ 1
L+ 1
L+ 1
L+ 1
L+ 1
L+ 1
L+ 1
L+ 1
L+ 1
L+ 1
L+ 1
L+ 1
L+ 1
L+ 1
L+ 1
L+ 1
L+ 1
L+ 1
L+ 1
L+ 1
L+ 1
L+ 1
L+ 1
L+ 1
L+ 1
L+ 1
L+ 1
L+ 1
L+ 1
L+ 1
L+ 1
L+ 1
L+ 1
L+ 1
L+ 1
L+ 1
L+ 1
L+ 1
L+ 1
L+ 1
L+ 1
L+ 1
L+ 1
L+ 1
L+ 1
L+ 1
L+ 1
L+ 1
L+ 1
L+ 1
L+ 1
L+ 1
L+ 1
L+ 1
L+ 1
L+ 1
L+ 1
L+ 1
L+ 1
L+ 1
L+ 1
L+ 1
L+ 1
L+ 1
L+ 1
L+ 1
L+ 1
L+ 1
L+ 1
L+ 1
L+ 1
L+ 1
L+ 1
L+ 1
L+ 1
L+ 1
L+ 1
L+ 1
L+ 1
L+ 1
L+ 1
L+ 1
L+ 1
L+ 1
L+ 1
L+ 1
L+ 1
L+ 1
L+ 1
L+ 1
L+ 1
L+ 1
L+ 1
L+ 1
L+ 1
L+ 1
L+ 1
L+ 1
L+ 1
L+ 1
L+ 1
L+ 1
L+ 1
L+ 1
L+ 1
L+ 1
L+ 1
L+ 1
L+ 1
L+ 1
L+ 1
L+ 1
L+ 1
L+ 1
L+ 1
L+ 1
L+ 1
L+ 1
L+ 1
L+ 1
L+ 1
L+ 1
L+ 1
L+ 1
L+ 1
L+ 1
L+ 1
L+ 1
L+ 1
L+ 1
L+ 1
L+ 1
L+ 1
L+ 1
L+ 1
L+ 1
L+ 1
L+ 1
L+ 1
L+ 1
L+ 1
L+ 1
L+ 1
L+ 1
L+ 1
L+ 1
L+ 1
L+ 1
L+ 1
L+ 1
L+ 1
L+ 1
L+ 1
L+ 1
L+ 1
L+ 1
L+ 1
L+ 1
L+ 1
L+ 1
L+ 1
L+ 1
L+ 1
L+ 1
L+ 1
L+ 1
L+ 1
L+ 1
L+ 1
L+ 1
L+ 1
L+ 1
L+ 1
L+ 1
L+ 1
L+ 1
L+ 1
L+ 1
L+ 1
L+ 1
L+ 1
L+ 1
L+ 1
L+ 1
L+ 1
L+ 1
L+ 1
L+ 1
L+ 1
L+ 1
L+ 1
L+ 1
L+ 1
L+ 1
L+ 1
L+ 1
L+ 1
L+ 1
L+ 1
L+ 1
L+ 1
L+ 1
L+ 1
L+ 1
L+ 1
L+ 1
L+ 1
L+ 1
L+ 1
L+ 1
L+ 1
L+ 1
L+ 1
L+ 1
L+ 1
L+ 1
L+ 1
L+ 1
L+ 1
L+ 1
L+ 1
L+ 1
L+ 1
L+ 1
L+ 1
L+ 1
L+ 1
L+ 1
L+ 1

OBJACOORD
1
44 -1.0

ACOORD
1139
0 0 -1.0
1 0 1.0
411 0 1.0
412 0 -1.0
0 1 -1.0
2 1 1.0
413 1 1.0
414 1 -1.0
0 2 -1.0
3 2 1.0
415 2 1.0
416 2 -1.0
0 3 -1.0
4 3 1.0
417 3 1.0
418 3 -1.0
0 4 5.0
9 4 -1.0
439 4 1.0
0 5 10.0
10 5 -1.0
440 5 1.0
0 6 5.0
11 6 -1.0
441 6 1.0
0 7 10.0
12 7 -1.0
442 7 1.0
0 8 -2.0
233 8 1.0
459 8 1.0
460 8 -1.0
0 9 -1.0
234 9 1.0
461 9 1.0
462 9 -1.0
0 10 -2.0
235 10 1.0
463 10 1.0
464 10 -1.0
0 11 -1.0
236 11 1.0
465 11 1.0
466 11 -1.0
0 12 80.0
137 12 1.0
467 12 1.0
0 13 90.0
138 13 1.0
468 13 1.0
0 14 120.0
139 14 1.0
469 14 1.0
0 15 100.0
140 15 1.0
470 15 1.0
0 16 285.0
189 16 1.0
471 16 1.0
0 17 390.0
190 17 1.0
472 17 1.0
0 18 350.0
191 18 1.0
473 18 1.0
0 19 300.0
192 19 1.0
474 19 1.0
0 20 290.0
237 20 1.0
475 20 1.0
0 21 405.0
238 21 1.0
476 21 1.0
0 22 190.0
239 22 1.0
477 22 1.0
0 23 340.0
240 23 1.0
478 23 1.0
0 24 -5.0
265 24 5.0
315 24 -1.0
316 24 -1.0
317 24 -1.0
318 24 -1.0
321 24 -1.0
324 24 -1.0
375 24 1.0
607 24 1.0
608 24 -1.0
0 25 -4.0
266 25 4.0
315 25 -1.0
318 25 -1.0
319 25 -1.0
320 25 -1.0
322 25 -1.0
325 25 -1.0
376 25 1.0
609 25 1.0
610 25 -1.0
0 26 -6.0
267 26 6.0
316 26 -1.0
319 26 -1.0
321 26 -1.0
322 26 -1.0
323 26 -1.0
326 26 -1.0
377 26 1.0
611 26 1.0
612 26 -1.0
0 27 -3.0
268 27 3.0
317 27 -1.0
320 27 -1.0
323 27 -1.0
324 27 -1.0
325 27 -1.0
326 27 -1.0
378 27 1.0
613 27 1.0
614 27 -1.0
0 28 -8.0
269 28 8.0
327 28 -1.0
328 28 -1.0
329 28 -1.0
330 28 -1.0
333 28 -1.0
336 28 -1.0
379 28 1.0
615 28 1.0
616 28 -1.0
0 29 -7.0
270 29 7.0
327 29 -1.0
330 29 -1.0
331 29 -1.0
332 29 -1.0
334 29 -1.0
337 29 -1.0
380 29 1.0
617 29 1.0
618 29 -1.0
0 30 -6.0
271 30 6.0
328 30 -1.0
331 30 -1.0
333 30 -1.0
334 30 -1.0
335 30 -1.0
338 30 -1.0
381 30 1.0
619 30 1.0
620 30 -1.0
0 31 -5.0
272 31 5.0
329 31 -1.0
332 31 -1.0
335 31 -1.0
336 31 -1.0
337 31 -1.0
338 31 -1.0
382 31 1.0
621 31 1.0
622 31 -1.0
0 32 -6.0
273 32 6.0
339 32 -1.0
340 32 -1.0
341 32 -1.0
342 32 -1.0
345 32 -1.0
348 32 -1.0
383 32 1.0
623 32 1.0
624 32 -1.0
0 33 -9.0
274 33 9.0
339 33 -1.0
342 33 -1.0
343 33 -1.0
344 33 -1.0
346 33 -1.0
349 33 -1.0
384 33 1.0
625 33 1.0
626 33 -1.0
0 34 -4.0
275 34 4.0
340 34 -1.0
343 34 -1.0
345 34 -1.0
346 34 -1.0
347 34 -1.0
350 34 -1.0
385 34 1.0
627 34 1.0
628 34 -1.0
0 35 -3.0
276 35 3.0
341 35 -1.0
344 35 -1.0
347 35 -1.0
348 35 -1.0
349 35 -1.0
350 35 -1.0
386 35 1.0
629 35 1.0
630 35 -1.0
0 36 -10.0
277 36 10.0
351 36 -1.0
352 36 -1.0
353 36 -1.0
354 36 -1.0
357 36 -1.0
360 36 -1.0
387 36 1.0
631 36 1.0
632 36 -1.0
0 37 -9.0
278 37 9.0
351 37 -1.0
354 37 -1.0
355 37 -1.0
356 37 -1.0
358 37 -1.0
361 37 -1.0
388 37 1.0
633 37 1.0
634 37 -1.0
0 38 -5.0
279 38 5.0
352 38 -1.0
355 38 -1.0
357 38 -1.0
358 38 -1.0
359 38 -1.0
362 38 -1.0
389 38 1.0
635 38 1.0
636 38 -1.0
0 39 -6.0
280 39 6.0
353 39 -1.0
356 39 -1.0
359 39 -1.0
360 39 -1.0
361 39 -1.0
362 39 -1.0
390 39 1.0
637 39 1.0
638 39 -1.0
0 40 -6.0
281 40 6.0
363 40 -1.0
364 40 -1.0
365 40 -1.0
366 40 -1.0
369 40 -1.0
372 40 -1.0
391 40 1.0
639 40 1.0
640 40 -1.0
0 41 -10.0
282 41 10.0
363 41 -1.0
366 41 -1.0
367 41 -1.0
368 41 -1.0
370 41 -1.0
373 41 -1.0
392 41 1.0
641 41 1.0
642 41 -1.0
0 42 -6.0
283 42 6.0
364 42 -1.0
367 42 -1.0
369 42 -1.0
370 42 -1.0
371 42 -1.0
374 42 -1.0
393 42 1.0
643 42 1.0
644 42 -1.0
0 43 -9.0
284 43 9.0
365 43 -1.0
368 43 -1.0
371 43 -1.0
372 43 -1.0
373 43 -1.0
374 43 -1.0
394 43 1.0
645 43 1.0
646 43 -1.0
0 44 -1.0
1 45 -1.0
45 45 1.0
419 45 1.0
1 46 -1.0
97 46 1.0
423 46 1.0
2 47 -1.0
46 47 1.0
420 47 1.0
2 48 -1.0
98 48 1.0
424 48 1.0
3 49 -1.0
47 49 1.0
421 49 1.0
3 50 -1.0
99 50 1.0
425 50 1.0
4 51 -1.0
48 51 1.0
422 51 1.0
4 52 -1.0
100 52 1.0
426 52 1.0
5 53 -1.0
49 53 1.0
427 53 1.0
5 54 -1.0
101 54 1.0
431 54 1.0
5 55 1.0
9 55 1.0
435 55 1.0
6 56 -1.0
50 56 1.0
428 56 1.0
6 57 -1.0
102 57 1.0
432 57 1.0
6 58 1.0
10 58 1.0
436 58 1.0
7 59 -1.0
51 59 1.0
429 59 1.0
7 60 -1.0
103 60 1.0
433 60 1.0
7 61 1.0
11 61 1.0
437 61 1.0
8 62 -1.0
52 62 1.0
430 62 1.0
8 63 -1.0
104 63 1.0
434 63 1.0
8 64 1.0
12 64 1.0
438 64 1.0
9 65 -1.0
13 65 1.0
443 65 1.0
10 66 -1.0
14 66 1.0
444 66 1.0
11 67 -1.0
15 67 1.0
445 67 1.0
12 68 -1.0
16 68 1.0
446 68 1.0
13 69 -1.0
133 69 1.0
447 69 1.0
13 70 -1.0
185 70 1.0
451 70 1.0
13 71 -1.0
229 71 1.0
455 71 1.0
14 72 -1.0
134 72 1.0
448 72 1.0
14 73 -1.0
186 73 1.0
452 73 1.0
14 74 -1.0
230 74 1.0
456 74 1.0
15 75 -1.0
135 75 1.0
449 75 1.0
15 76 -1.0
187 76 1.0
453 76 1.0
15 77 -1.0
231 77 1.0
457 77 1.0
16 78 -1.0
136 78 1.0
450 78 1.0
16 79 -1.0
188 79 1.0
454 79 1.0
16 80 -1.0
232 80 1.0
458 80 1.0
19 81 -1.0
21 81 -1.0
17 82 1.0
18 82 1.0
20 82 1.0
53 82 40.0
57 82 -40.0
61 82 3.71357206670431
65 82 -3.71357206670431
285 82 -1.0
286 82 -1.0
287 82 -1.0
375 82 -1.0
376 82 1.0
377 82 1.0
378 82 1.0
395 82 1.0
399 82 1.0
403 82 1.0
407 82 1.0
567 82 1.0
568 82 -1.0
17 83 1.0
20 83 1.0
45 83 -1.0
53 83 -1.0
479 83 1.0
21 84 -1.0
49 84 -1.0
61 84 -1.0
495 84 1.0
24 85 -1.0
26 85 -1.0
22 86 1.0
23 86 1.0
25 86 1.0
54 86 40.0
58 86 -40.0
62 86 3.71357206670431
66 86 -3.71357206670431
285 86 1.0
288 86 -1.0
289 86 -1.0
376 86 -1.0
377 86 1.0
378 86 1.0
396 86 1.0
400 86 1.0
404 86 1.0
408 86 1.0
569 86 1.0
570 86 -1.0
22 87 1.0
25 87 1.0
46 87 -1.0
54 87 -1.0
480 87 1.0
26 88 -1.0
50 88 -1.0
62 88 -1.0
496 88 1.0
29 89 -1.0
31 89 -1.0
27 90 1.0
28 90 1.0
30 90 1.0
55 90 40.0
59 90 -40.0
63 90 3.71357206670431
67 90 -3.71357206670431
286 90 1.0
288 90 1.0
290 90 -1.0
377 90 -1.0
378 90 1.0
397 90 1.0
401 90 1.0
405 90 1.0
409 90 1.0
571 90 1.0
572 90 -1.0
27 91 1.0
30 91 1.0
47 91 -1.0
55 91 -1.0
481 91 1.0
31 92 -1.0
51 92 -1.0
63 92 -1.0
497 92 1.0
34 93 -1.0
36 93 -1.0
32 94 1.0
33 94 1.0
35 94 1.0
56 94 40.0
60 94 -40.0
64 94 3.71357206670431
68 94 -3.71357206670431
287 94 1.0
289 94 1.0
290 94 1.0
378 94 -1.0
398 94 1.0
402 94 1.0
406 94 1.0
410 94 1.0
573 94 1.0
574 94 -1.0
32 95 1.0
35 95 1.0
48 95 -1.0
56 95 -1.0
482 95 1.0
36 96 -1.0
52 96 -1.0
64 96 -1.0
498 96 1.0
37 97 1.0
45 97 -1.0
57 97 -1.0
483 97 1.0
38 98 1.0
46 98 -1.0
58 98 -1.0
484 98 1.0
39 99 1.0
47 99 -1.0
59 99 -1.0
485 99 1.0
40 100 1.0
48 100 -1.0
60 100 -1.0
486 100 1.0
41 101 1.0
49 101 -1.0
65 101 -1.0
499 101 1.0
42 102 1.0
50 102 -1.0
66 102 -1.0
500 102 1.0
43 103 1.0
51 103 -1.0
67 103 -1.0
501 103 1.0
44 104 1.0
52 104 -1.0
68 104 -1.0
502 104 1.0
71 105 -1.0
73 105 -1.2
69 106 1.0
70 106 1.0
72 106 1.0
105 106 40.0
109 106 -40.0
113 106 4.45628648004517
117 106 -4.45628648004517
291 106 -1.0
292 106 -1.0
293 106 -1.0
379 106 -1.0
380 106 1.0
381 106 1.0
382 106 1.0
395 106 1.0
399 106 1.0
403 106 1.0
407 106 1.0
575 106 1.0
576 106 -1.0
69 107 1.0
72 107 1.0
97 107 -1.0
105 107 -1.0
487 107 1.0
73 108 -1.0
101 108 -1.0
113 108 -1.0
503 108 1.0
76 109 -1.0
78 109 -1.2
74 110 1.0
75 110 1.0
77 110 1.0
106 110 40.0
110 110 -40.0
114 110 4.45628648004517
118 110 -4.45628648004517
291 110 1.0
294 110 -1.0
295 110 -1.0
380 110 -1.0
381 110 1.0
382 110 1.0
396 110 1.0
400 110 1.0
404 110 1.0
408 110 1.0
577 110 1.0
578 110 -1.0
74 111 1.0
77 111 1.0
98 111 -1.0
106 111 -1.0
488 111 1.0
78 112 -1.0
102 112 -1.0
114 112 -1.0
504 112 1.0
81 113 -1.0
83 113 -1.2
79 114 1.0
80 114 1.0
82 114 1.0
107 114 40.0
111 114 -40.0
115 114 4.45628648004517
119 114 -4.45628648004517
292 114 1.0
294 114 1.0
296 114 -1.0
381 114 -1.0
382 114 1.0
397 114 1.0
401 114 1.0
405 114 1.0
409 114 1.0
579 114 1.0
580 114 -1.0
79 115 1.0
82 115 1.0
99 115 -1.0
107 115 -1.0
489 115 1.0
83 116 -1.0
103 116 -1.0
115 116 -1.0
505 116 1.0
86 117 -1.0
88 117 -1.2
84 118 1.0
85 118 1.0
87 118 1.0
108 118 40.0
112 118 -40.0
116 118 4.45628648004517
120 118 -4.45628648004517
293 118 1.0
295 118 1.0
296 118 1.0
382 118 -1.0
398 118 1.0
402 118 1.0
406 118 1.0
410 118 1.0
581 118 1.0
582 118 -1.0
84 119 1.0
87 119 1.0
100 119 -1.0
108 119 -1.0
490 119 1.0
88 120 -1.0
104 120 -1.0
116 120 -1.0
506 120 1.0
89 121 1.0
97 121 -1.0
109 121 -1.0
491 121 1.0
90 122 1.0
98 122 -1.0
110 122 -1.0
492 122 1.0
91 123 1.0
99 123 -1.0
111 123 -1.0
493 123 1.0
92 124 1.0
100 124 -1.0
112 124 -1.0
494 124 1.0
93 125 1.0
101 125 -1.0
117 125 -1.0
507 125 1.0
94 126 1.0
102 126 -1.0
118 126 -1.0
508 126 1.0
95 127 1.0
103 127 -1.0
119 127 -1.0
509 127 1.0
96 128 1.0
104 128 -1.0
120 128 -1.0
510 128 1.0
121 129 -0.75
133 129 -1.0
141 129 -1.0
511 129 1.0
121 130 1.0
137 130 -1.0
149 130 -1.0
543 130 1.0
122 131 -0.75
134 131 -1.0
142 131 -1.0
512 131 1.0
122 132 1.0
138 132 -1.0
150 132 -1.0
544 132 1.0
123 133 -0.75
135 133 -1.0
143 133 -1.0
513 133 1.0
123 134 1.0
139 134 -1.0
151 134 -1.0
545 134 1.0
124 135 -0.75
136 135 -1.0
144 135 -1.0
514 135 1.0
124 136 1.0
140 136 -1.0
152 136 -1.0
546 136 1.0
125 137 1.0
133 137 -1.0
145 137 -1.0
515 137 1.0
126 138 1.0
134 138 -1.0
146 138 -1.0
516 138 1.0
127 139 1.0
135 139 -1.0
147 139 -1.0
517 139 1.0
128 140 1.0
136 140 -1.0
148 140 -1.0
518 140 1.0
129 141 1.0
137 141 -1.0
153 141 -1.0
547 141 1.0
130 142 1.0
138 142 -1.0
154 142 -1.0
548 142 1.0
131 143 1.0
139 143 -1.0
155 143 -1.0
549 143 1.0
132 144 1.0
140 144 -1.0
156 144 -1.0
550 144 1.0
141 145 4.45628648004517
145 145 -4.45628648004517
149 145 3.34221486003388
153 145 -3.34221486003388
297 145 -1.0
298 145 -1.0
299 145 -1.0
383 145 -1.0
384 145 1.0
385 145 1.0
386 145 1.0
399 145 -1.0
583 145 1.0
584 145 -1.0
142 146 4.45628648004517
146 146 -4.45628648004517
150 146 3.34221486003388
154 146 -3.34221486003388
297 146 1.0
300 146 -1.0
301 146 -1.0
384 146 -1.0
385 146 1.0
386 146 1.0
400 146 -1.0
585 146 1.0
586 146 -1.0
143 147 4.45628648004517
147 147 -4.45628648004517
151 147 3.34221486003388
155 147 -3.34221486003388
298 147 1.0
300 147 1.0
302 147 -1.0
385 147 -1.0
386 147 1.0
401 147 -1.0
587 147 1.0
588 147 -1.0
144 148 4.45628648004517
148 148 -4.45628648004517
152 148 3.34221486003388
156 148 -3.34221486003388
299 148 1.0
301 148 1.0
302 148 1.0
386 148 -1.0
402 148 -1.0
589 148 1.0
590 148 -1.0
159 149 -1.0
161 149 -1.5
157 150 1.0
158 150 1.0
160 150 1.0
193 150 4.45628648004517
197 150 -4.45628648004517
201 150 2.54515263975353
205 150 -2.54515263975353
303 150 -1.0
304 150 -1.0
305 150 -1.0
387 150 -1.0
388 150 1.0
389 150 1.0
390 150 1.0
403 150 -1.0
591 150 1.0
592 150 -1.0
157 151 1.0
160 151 1.0
185 151 -1.0
193 151 -1.0
519 151 1.0
161 152 -1.0
189 152 -1.0
201 152 -1.0
551 152 1.0
164 153 -1.0
166 153 -1.5
162 154 1.0
163 154 1.0
165 154 1.0
194 154 4.45628648004517
198 154 -4.45628648004517
202 154 2.54515263975353
206 154 -2.54515263975353
303 154 1.0
306 154 -1.0
307 154 -1.0
388 154 -1.0
389 154 1.0
390 154 1.0
404 154 -1.0
593 154 1.0
594 154 -1.0
162 155 1.0
165 155 1.0
186 155 -1.0
194 155 -1.0
520 155 1.0
166 156 -1.0
190 156 -1.0
202 156 -1.0
552 156 1.0
169 157 -1.0
171 157 -1.5
167 158 1.0
168 158 1.0
170 158 1.0
195 158 4.45628648004517
199 158 -4.45628648004517
203 158 2.54515263975353
207 158 -2.54515263975353
304 158 1.0
306 158 1.0
308 158 -1.0
389 158 -1.0
390 158 1.0
405 158 -1.0
595 158 1.0
596 158 -1.0
167 159 1.0
170 159 1.0
187 159 -1.0
195 159 -1.0
521 159 1.0
171 160 -1.0
191 160 -1.0
203 160 -1.0
553 160 1.0
174 161 -1.0
176 161 -1.5
172 162 1.0
173 162 1.0
175 162 1.0
196 162 4.45628648004517
200 162 -4.45628648004517
204 162 2.54515263975353
208 162 -2.54515263975353
305 162 1.0
307 162 1.0
308 162 1.0
390 162 -1.0
406 162 -1.0
597 162 1.0
598 162 -1.0
172 163 1.0
175 163 1.0
188 163 -1.0
196 163 -1.0
522 163 1.0
176 164 -1.0
192 164 -1.0
204 164 -1.0
554 164 1.0
177 165 1.0
185 165 -1.0
197 165 -1.0
523 165 1.0
178 166 1.0
186 166 -1.0
198 166 -1.0
524 166 1.0
179 167 1.0
187 167 -1.0
199 167 -1.0
525 167 1.0
180 168 1.0
188 168 -1.0
200 168 -1.0
526 168 1.0
181 169 1.0
189 169 -1.0
205 169 -1.0
555 169 1.0
182 170 1.0
190 170 -1.0
206 170 -1.0
556 170 1.0
183 171 1.0
191 171 -1.0
207 171 -1.0
557 171 1.0
184 172 1.0
192 172 -1.0
208 172 -1.0
558 172 1.0
209 173 -1.0
229 173 -1.0
241 173 -1.0
527 173 1.0
209 174 1.0
213 174 1.0
237 174 -1.0
257 174 -1.0
559 174 1.0
210 175 -1.0
230 175 -1.0
242 175 -1.0
528 175 1.0
210 176 1.0
214 176 1.0
238 176 -1.0
258 176 -1.0
560 176 1.0
211 177 -1.0
231 177 -1.0
243 177 -1.0
529 177 1.0
211 178 1.0
215 178 1.0
239 178 -1.0
259 178 -1.0
561 178 1.0
212 179 -1.0
232 179 -1.0
244 179 -1.0
530 179 1.0
212 180 1.0
216 180 1.0
240 180 -1.0
260 180 -1.0
562 180 1.0
213 181 -0.5
233 181 -1.0
249 181 -1.0
535 181 1.0
214 182 -0.5
234 182 -1.0
250 182 -1.0
536 182 1.0
215 183 -0.5
235 183 -1.0
251 183 -1.0
537 183 1.0
216 184 -0.5
236 184 -1.0
252 184 -1.0
538 184 1.0
217 185 1.0
229 185 -1.0
245 185 -1.0
531 185 1.0
218 186 1.0
230 186 -1.0
246 186 -1.0
532 186 1.0
219 187 1.0
231 187 -1.0
247 187 -1.0
533 187 1.0
220 188 1.0
232 188 -1.0
248 188 -1.0
534 188 1.0
221 189 1.0
233 189 -1.0
253 189 -1.0
539 189 1.0
222 190 1.0
234 190 -1.0
254 190 -1.0
540 190 1.0
223 191 1.0
235 191 -1.0
255 191 -1.0
541 191 1.0
224 192 1.0
236 192 -1.0
256 192 -1.0
542 192 1.0
225 193 1.0
237 193 -1.0
261 193 -1.0
563 193 1.0
226 194 1.0
238 194 -1.0
262 194 -1.0
564 194 1.0
227 195 1.0
239 195 -1.0
263 195 -1.0
565 195 1.0
228 196 1.0
240 196 -1.0
264 196 -1.0
566 196 1.0
241 197 4.45628648004517
245 197 -4.45628648004517
249 197 30.0
253 197 -30.0
257 197 15.0
261 197 -15.0
309 197 -1.0
310 197 -1.0
311 197 -1.0
391 197 -1.0
392 197 1.0
393 197 1.0
394 197 1.0
407 197 -1.0
599 197 1.0
600 197 -1.0
242 198 4.45628648004517
246 198 -4.45628648004517
250 198 30.0
254 198 -30.0
258 198 15.0
262 198 -15.0
309 198 1.0
312 198 -1.0
313 198 -1.0
392 198 -1.0
393 198 1.0
394 198 1.0
408 198 -1.0
601 198 1.0
602 198 -1.0
243 199 4.45628648004517
247 199 -4.45628648004517
251 199 30.0
255 199 -30.0
259 199 15.0
263 199 -15.0
310 199 1.0
312 199 1.0
314 199 -1.0
393 199 -1.0
394 199 1.0
409 199 -1.0
603 199 1.0
604 199 -1.0
244 200 4.45628648004517
248 200 -4.45628648004517
252 200 30.0
256 200 -30.0
260 200 15.0
264 200 -15.0
311 200 1.0
313 200 1.0
314 200 1.0
394 200 -1.0
410 200 -1.0
605 200 1.0
606 200 -1.0
265 201 1.0
266 202 1.0
267 203 1.0
268 204 1.0
269 205 1.0
270 206 1.0
271 207 1.0
272 208 1.0
273 209 1.0
274 210 1.0
275 211 1.0
276 212 1.0
277 213 1.0
278 214 1.0
279 215 1.0
280 216 1.0
281 217 1.0
282 218 1.0
283 219 1.0
284 220 1.0

BCOORD
156
57 40.0
58 40.0
59 40.0
60 40.0
65 3.71357206670431
66 3.71357206670431
67 3.71357206670431
68 3.71357206670431
109 40.0
110 40.0
111 40.0
112 40.0
117 4.45628648004517
118 4.45628648004517
119 4.45628648004517
120 4.45628648004517
145 4.45628648004517
146 4.45628648004517
147 4.45628648004517
148 4.45628648004517
153 3.34221486003388
154 3.34221486003388
155 3.34221486003388
156 3.34221486003388
197 4.45628648004517
198 4.45628648004517
199 4.45628648004517
200 4.45628648004517
205 2.54515263975353
206 2.54515263975353
207 2.54515263975353
208 2.54515263975353
245 4.45628648004517
246 4.45628648004517
247 4.45628648004517
248 4.45628648004517
253 30.0
254 30.0
255 30.0
256 30.0
261 15.0
262 15.0
263 15.0
264 15.0
315 1.0
316 1.0
317 1.0
318 1.0
319 1.0
320 1.0
321 1.0
322 1.0
323 1.0
324 1.0
325 1.0
326 1.0
327 1.0
328 1.0
329 1.0
330 1.0
331 1.0
332 1.0
333 1.0
334 1.0
335 1.0
336 1.0
337 1.0
338 1.0
339 1.0
340 1.0
341 1.0
342 1.0
343 1.0
344 1.0
345 1.0
346 1.0
347 1.0
348 1.0
349 1.0
350 1.0
351 1.0
352 1.0
353 1.0
354 1.0
355 1.0
356 1.0
357 1.0
358 1.0
359 1.0
360 1.0
361 1.0
362 1.0
363 1.0
364 1.0
365 1.0
366 1.0
367 1.0
368 1.0
369 1.0
370 1.0
371 1.0
372 1.0
373 1.0
374 1.0
395 -1.0
396 -1.0
397 -1.0
398 -1.0
412 40.0
414 40.0
416 40.0
418 40.0
460 30.0
462 30.0
464 30.0
466 30.0
568 1.0
570 1.0
572 1.0
574 1.0
576 1.0
578 1.0
580 1.0
582 1.0
584 1.0
586 1.0
588 1.0
590 1.0
592 1.0
594 1.0
596 1.0
598 1.0
600 1.0
602 1.0
604 1.0
606 1.0
608 1.0
610 1.0
612 1.0
614 1.0
616 1.0
618 1.0
620 1.0
622 1.0
624 1.0
626 1.0
628 1.0
630 1.0
632 1.0
634 1.0
636 1.0
638 1.0
640 1.0
642 1.0
644 1.0
646 1.0
